\ENCODING=ISO-8859-1
\Problem name: TP2

Maximize
 obj1: 4 x_j1 + 7 x_j2 + 14 x_j3 + 10 x_j4 + 2 x_j5 + 13 x_j6 + 7 x_j7 + x_j8
       + 2 x_j9 + 13 x_j10
Subject To
 capacity_1: 9 x_j1 + 9 x_j2 + 6 x_j3 + 11 x_j4 + 4 x_j5 + 10 x_j6 + 13 x_j7
             + 3 x_j8 + 13 x_j9 + 9 x_j10 <= 50
Bounds
 0 <= x_j1 <= 1
 0 <= x_j2 <= 1
 0 <= x_j3 <= 1
 0 <= x_j4 <= 1
 0 <= x_j5 <= 1
 0 <= x_j6 <= 1
 0 <= x_j7 <= 1
 0 <= x_j8 <= 1
 0 <= x_j9 <= 1
 0 <= x_j10 <= 1
Binaries
 x_j1  x_j2  x_j3  x_j4  x_j5  x_j6  x_j7  x_j8  x_j9  x_j10 
End
